c *********************************
c * Circuit generated by BenCGen
c *
c * CarryLookahead_21_21_21_InOutT
c *
c * Ports with 1 gate(s): 2
c * Ports with 2 gate(s): 86
c * Ports with 3 gate(s): 21
c * Ports with 4 gate(s): 20
c * Ports with 5 gate(s): 19
c * Ports with 6 gate(s): 18
c * Ports with 7 gate(s): 17
c * Ports with 8 gate(s): 16
c * Ports with 9 gate(s): 15
c * Ports with 10 gate(s): 14
c * Ports with 11 gate(s): 13
c * Ports with 12 gate(s): 12
c * Ports with 13 gate(s): 11
c * Ports with 14 gate(s): 10
c * Ports with 15 gate(s): 9
c * Ports with 16 gate(s): 8
c * Ports with 17 gate(s): 7
c * Ports with 18 gate(s): 6
c * Ports with 19 gate(s): 5
c * Ports with 20 gate(s): 4
c * Ports with 21 gate(s): 3
c * Ports with 22 gate(s): 2
c * Total gates: 318
c *********************************
p cnf 360 2744
1 66 0
-1 -66 0
1 -65 0
66 -65 0
-1 -66 65 0
1 22 -67 0
-1 22 67 0
1 -22 67 0
-1 -22 -67 0
1 -88 0
22 -88 0
-1 -22 88 0
2 23 -68 0
-2 23 68 0
2 -23 68 0
-2 -23 -68 0
2 -89 0
23 -89 0
-2 -23 89 0
3 24 -69 0
-3 24 69 0
3 -24 69 0
-3 -24 -69 0
3 -90 0
24 -90 0
-3 -24 90 0
4 25 -70 0
-4 25 70 0
4 -25 70 0
-4 -25 -70 0
4 -91 0
25 -91 0
-4 -25 91 0
5 26 -71 0
-5 26 71 0
5 -26 71 0
-5 -26 -71 0
5 -92 0
26 -92 0
-5 -26 92 0
6 27 -72 0
-6 27 72 0
6 -27 72 0
-6 -27 -72 0
6 -93 0
27 -93 0
-6 -27 93 0
7 28 -73 0
-7 28 73 0
7 -28 73 0
-7 -28 -73 0
7 -94 0
28 -94 0
-7 -28 94 0
8 29 -74 0
-8 29 74 0
8 -29 74 0
-8 -29 -74 0
8 -95 0
29 -95 0
-8 -29 95 0
9 30 -75 0
-9 30 75 0
9 -30 75 0
-9 -30 -75 0
9 -96 0
30 -96 0
-9 -30 96 0
10 31 -76 0
-10 31 76 0
10 -31 76 0
-10 -31 -76 0
10 -97 0
31 -97 0
-10 -31 97 0
11 32 -77 0
-11 32 77 0
11 -32 77 0
-11 -32 -77 0
11 -98 0
32 -98 0
-11 -32 98 0
12 33 -78 0
-12 33 78 0
12 -33 78 0
-12 -33 -78 0
12 -99 0
33 -99 0
-12 -33 99 0
13 34 -79 0
-13 34 79 0
13 -34 79 0
-13 -34 -79 0
13 -100 0
34 -100 0
-13 -34 100 0
14 35 -80 0
-14 35 80 0
14 -35 80 0
-14 -35 -80 0
14 -101 0
35 -101 0
-14 -35 101 0
15 36 -81 0
-15 36 81 0
15 -36 81 0
-15 -36 -81 0
15 -102 0
36 -102 0
-15 -36 102 0
16 37 -82 0
-16 37 82 0
16 -37 82 0
-16 -37 -82 0
16 -103 0
37 -103 0
-16 -37 103 0
17 38 -83 0
-17 38 83 0
17 -38 83 0
-17 -38 -83 0
17 -104 0
38 -104 0
-17 -38 104 0
18 39 -84 0
-18 39 84 0
18 -39 84 0
-18 -39 -84 0
18 -105 0
39 -105 0
-18 -39 105 0
19 40 -85 0
-19 40 85 0
19 -40 85 0
-19 -40 -85 0
19 -106 0
40 -106 0
-19 -40 106 0
20 41 -86 0
-20 41 86 0
20 -41 86 0
-20 -41 -86 0
20 -107 0
41 -107 0
-20 -41 107 0
21 42 -87 0
-21 42 87 0
21 -42 87 0
-21 -42 -87 0
21 -108 0
42 -108 0
-21 -42 108 0
65 -130 0
67 -130 0
-65 -67 130 0
65 -131 0
67 -131 0
68 -131 0
-65 -67 -68 131 0
88 -132 0
68 -132 0
-88 -68 132 0
65 -133 0
67 -133 0
68 -133 0
69 -133 0
-65 -67 -68 -69 133 0
88 -134 0
68 -134 0
69 -134 0
-88 -68 -69 134 0
89 -135 0
69 -135 0
-89 -69 135 0
65 -136 0
67 -136 0
68 -136 0
69 -136 0
70 -136 0
-65 -67 -68 -69 -70 136 0
88 -137 0
68 -137 0
69 -137 0
70 -137 0
-88 -68 -69 -70 137 0
89 -138 0
69 -138 0
70 -138 0
-89 -69 -70 138 0
90 -139 0
70 -139 0
-90 -70 139 0
65 -140 0
67 -140 0
68 -140 0
69 -140 0
70 -140 0
71 -140 0
-65 -67 -68 -69 -70 -71 140 0
88 -141 0
68 -141 0
69 -141 0
70 -141 0
71 -141 0
-88 -68 -69 -70 -71 141 0
89 -142 0
69 -142 0
70 -142 0
71 -142 0
-89 -69 -70 -71 142 0
90 -143 0
70 -143 0
71 -143 0
-90 -70 -71 143 0
91 -144 0
71 -144 0
-91 -71 144 0
65 -145 0
67 -145 0
68 -145 0
69 -145 0
70 -145 0
71 -145 0
72 -145 0
-65 -67 -68 -69 -70 -71 -72 145 0
88 -146 0
68 -146 0
69 -146 0
70 -146 0
71 -146 0
72 -146 0
-88 -68 -69 -70 -71 -72 146 0
89 -147 0
69 -147 0
70 -147 0
71 -147 0
72 -147 0
-89 -69 -70 -71 -72 147 0
90 -148 0
70 -148 0
71 -148 0
72 -148 0
-90 -70 -71 -72 148 0
91 -149 0
71 -149 0
72 -149 0
-91 -71 -72 149 0
92 -150 0
72 -150 0
-92 -72 150 0
65 -151 0
67 -151 0
68 -151 0
69 -151 0
70 -151 0
71 -151 0
72 -151 0
73 -151 0
-65 -67 -68 -69 -70 -71 -72 -73 151 0
88 -152 0
68 -152 0
69 -152 0
70 -152 0
71 -152 0
72 -152 0
73 -152 0
-88 -68 -69 -70 -71 -72 -73 152 0
89 -153 0
69 -153 0
70 -153 0
71 -153 0
72 -153 0
73 -153 0
-89 -69 -70 -71 -72 -73 153 0
90 -154 0
70 -154 0
71 -154 0
72 -154 0
73 -154 0
-90 -70 -71 -72 -73 154 0
91 -155 0
71 -155 0
72 -155 0
73 -155 0
-91 -71 -72 -73 155 0
92 -156 0
72 -156 0
73 -156 0
-92 -72 -73 156 0
93 -157 0
73 -157 0
-93 -73 157 0
65 -158 0
67 -158 0
68 -158 0
69 -158 0
70 -158 0
71 -158 0
72 -158 0
73 -158 0
74 -158 0
-65 -67 -68 -69 -70 -71 -72 -73 -74 158 0
88 -159 0
68 -159 0
69 -159 0
70 -159 0
71 -159 0
72 -159 0
73 -159 0
74 -159 0
-88 -68 -69 -70 -71 -72 -73 -74 159 0
89 -160 0
69 -160 0
70 -160 0
71 -160 0
72 -160 0
73 -160 0
74 -160 0
-89 -69 -70 -71 -72 -73 -74 160 0
90 -161 0
70 -161 0
71 -161 0
72 -161 0
73 -161 0
74 -161 0
-90 -70 -71 -72 -73 -74 161 0
91 -162 0
71 -162 0
72 -162 0
73 -162 0
74 -162 0
-91 -71 -72 -73 -74 162 0
92 -163 0
72 -163 0
73 -163 0
74 -163 0
-92 -72 -73 -74 163 0
93 -164 0
73 -164 0
74 -164 0
-93 -73 -74 164 0
94 -165 0
74 -165 0
-94 -74 165 0
65 -166 0
67 -166 0
68 -166 0
69 -166 0
70 -166 0
71 -166 0
72 -166 0
73 -166 0
74 -166 0
75 -166 0
-65 -67 -68 -69 -70 -71 -72 -73 -74 -75 166 0
88 -167 0
68 -167 0
69 -167 0
70 -167 0
71 -167 0
72 -167 0
73 -167 0
74 -167 0
75 -167 0
-88 -68 -69 -70 -71 -72 -73 -74 -75 167 0
89 -168 0
69 -168 0
70 -168 0
71 -168 0
72 -168 0
73 -168 0
74 -168 0
75 -168 0
-89 -69 -70 -71 -72 -73 -74 -75 168 0
90 -169 0
70 -169 0
71 -169 0
72 -169 0
73 -169 0
74 -169 0
75 -169 0
-90 -70 -71 -72 -73 -74 -75 169 0
91 -170 0
71 -170 0
72 -170 0
73 -170 0
74 -170 0
75 -170 0
-91 -71 -72 -73 -74 -75 170 0
92 -171 0
72 -171 0
73 -171 0
74 -171 0
75 -171 0
-92 -72 -73 -74 -75 171 0
93 -172 0
73 -172 0
74 -172 0
75 -172 0
-93 -73 -74 -75 172 0
94 -173 0
74 -173 0
75 -173 0
-94 -74 -75 173 0
95 -174 0
75 -174 0
-95 -75 174 0
65 -175 0
67 -175 0
68 -175 0
69 -175 0
70 -175 0
71 -175 0
72 -175 0
73 -175 0
74 -175 0
75 -175 0
76 -175 0
-65 -67 -68 -69 -70 -71 -72 -73 -74 -75 -76 175 0
88 -176 0
68 -176 0
69 -176 0
70 -176 0
71 -176 0
72 -176 0
73 -176 0
74 -176 0
75 -176 0
76 -176 0
-88 -68 -69 -70 -71 -72 -73 -74 -75 -76 176 0
89 -177 0
69 -177 0
70 -177 0
71 -177 0
72 -177 0
73 -177 0
74 -177 0
75 -177 0
76 -177 0
-89 -69 -70 -71 -72 -73 -74 -75 -76 177 0
90 -178 0
70 -178 0
71 -178 0
72 -178 0
73 -178 0
74 -178 0
75 -178 0
76 -178 0
-90 -70 -71 -72 -73 -74 -75 -76 178 0
91 -179 0
71 -179 0
72 -179 0
73 -179 0
74 -179 0
75 -179 0
76 -179 0
-91 -71 -72 -73 -74 -75 -76 179 0
92 -180 0
72 -180 0
73 -180 0
74 -180 0
75 -180 0
76 -180 0
-92 -72 -73 -74 -75 -76 180 0
93 -181 0
73 -181 0
74 -181 0
75 -181 0
76 -181 0
-93 -73 -74 -75 -76 181 0
94 -182 0
74 -182 0
75 -182 0
76 -182 0
-94 -74 -75 -76 182 0
95 -183 0
75 -183 0
76 -183 0
-95 -75 -76 183 0
96 -184 0
76 -184 0
-96 -76 184 0
65 -185 0
67 -185 0
68 -185 0
69 -185 0
70 -185 0
71 -185 0
72 -185 0
73 -185 0
74 -185 0
75 -185 0
76 -185 0
77 -185 0
-65 -67 -68 -69 -70 -71 -72 -73 -74 -75 -76 -77 185 0
88 -186 0
68 -186 0
69 -186 0
70 -186 0
71 -186 0
72 -186 0
73 -186 0
74 -186 0
75 -186 0
76 -186 0
77 -186 0
-88 -68 -69 -70 -71 -72 -73 -74 -75 -76 -77 186 0
89 -187 0
69 -187 0
70 -187 0
71 -187 0
72 -187 0
73 -187 0
74 -187 0
75 -187 0
76 -187 0
77 -187 0
-89 -69 -70 -71 -72 -73 -74 -75 -76 -77 187 0
90 -188 0
70 -188 0
71 -188 0
72 -188 0
73 -188 0
74 -188 0
75 -188 0
76 -188 0
77 -188 0
-90 -70 -71 -72 -73 -74 -75 -76 -77 188 0
91 -189 0
71 -189 0
72 -189 0
73 -189 0
74 -189 0
75 -189 0
76 -189 0
77 -189 0
-91 -71 -72 -73 -74 -75 -76 -77 189 0
92 -190 0
72 -190 0
73 -190 0
74 -190 0
75 -190 0
76 -190 0
77 -190 0
-92 -72 -73 -74 -75 -76 -77 190 0
93 -191 0
73 -191 0
74 -191 0
75 -191 0
76 -191 0
77 -191 0
-93 -73 -74 -75 -76 -77 191 0
94 -192 0
74 -192 0
75 -192 0
76 -192 0
77 -192 0
-94 -74 -75 -76 -77 192 0
95 -193 0
75 -193 0
76 -193 0
77 -193 0
-95 -75 -76 -77 193 0
96 -194 0
76 -194 0
77 -194 0
-96 -76 -77 194 0
97 -195 0
77 -195 0
-97 -77 195 0
65 -196 0
67 -196 0
68 -196 0
69 -196 0
70 -196 0
71 -196 0
72 -196 0
73 -196 0
74 -196 0
75 -196 0
76 -196 0
77 -196 0
78 -196 0
-65 -67 -68 -69 -70 -71 -72 -73 -74 -75 -76 -77 -78 196 0
88 -197 0
68 -197 0
69 -197 0
70 -197 0
71 -197 0
72 -197 0
73 -197 0
74 -197 0
75 -197 0
76 -197 0
77 -197 0
78 -197 0
-88 -68 -69 -70 -71 -72 -73 -74 -75 -76 -77 -78 197 0
89 -198 0
69 -198 0
70 -198 0
71 -198 0
72 -198 0
73 -198 0
74 -198 0
75 -198 0
76 -198 0
77 -198 0
78 -198 0
-89 -69 -70 -71 -72 -73 -74 -75 -76 -77 -78 198 0
90 -199 0
70 -199 0
71 -199 0
72 -199 0
73 -199 0
74 -199 0
75 -199 0
76 -199 0
77 -199 0
78 -199 0
-90 -70 -71 -72 -73 -74 -75 -76 -77 -78 199 0
91 -200 0
71 -200 0
72 -200 0
73 -200 0
74 -200 0
75 -200 0
76 -200 0
77 -200 0
78 -200 0
-91 -71 -72 -73 -74 -75 -76 -77 -78 200 0
92 -201 0
72 -201 0
73 -201 0
74 -201 0
75 -201 0
76 -201 0
77 -201 0
78 -201 0
-92 -72 -73 -74 -75 -76 -77 -78 201 0
93 -202 0
73 -202 0
74 -202 0
75 -202 0
76 -202 0
77 -202 0
78 -202 0
-93 -73 -74 -75 -76 -77 -78 202 0
94 -203 0
74 -203 0
75 -203 0
76 -203 0
77 -203 0
78 -203 0
-94 -74 -75 -76 -77 -78 203 0
95 -204 0
75 -204 0
76 -204 0
77 -204 0
78 -204 0
-95 -75 -76 -77 -78 204 0
96 -205 0
76 -205 0
77 -205 0
78 -205 0
-96 -76 -77 -78 205 0
97 -206 0
77 -206 0
78 -206 0
-97 -77 -78 206 0
98 -207 0
78 -207 0
-98 -78 207 0
65 -208 0
67 -208 0
68 -208 0
69 -208 0
70 -208 0
71 -208 0
72 -208 0
73 -208 0
74 -208 0
75 -208 0
76 -208 0
77 -208 0
78 -208 0
79 -208 0
-65 -67 -68 -69 -70 -71 -72 -73 -74 -75 -76 -77 -78 -79 208 0
88 -209 0
68 -209 0
69 -209 0
70 -209 0
71 -209 0
72 -209 0
73 -209 0
74 -209 0
75 -209 0
76 -209 0
77 -209 0
78 -209 0
79 -209 0
-88 -68 -69 -70 -71 -72 -73 -74 -75 -76 -77 -78 -79 209 0
89 -210 0
69 -210 0
70 -210 0
71 -210 0
72 -210 0
73 -210 0
74 -210 0
75 -210 0
76 -210 0
77 -210 0
78 -210 0
79 -210 0
-89 -69 -70 -71 -72 -73 -74 -75 -76 -77 -78 -79 210 0
90 -211 0
70 -211 0
71 -211 0
72 -211 0
73 -211 0
74 -211 0
75 -211 0
76 -211 0
77 -211 0
78 -211 0
79 -211 0
-90 -70 -71 -72 -73 -74 -75 -76 -77 -78 -79 211 0
91 -212 0
71 -212 0
72 -212 0
73 -212 0
74 -212 0
75 -212 0
76 -212 0
77 -212 0
78 -212 0
79 -212 0
-91 -71 -72 -73 -74 -75 -76 -77 -78 -79 212 0
92 -213 0
72 -213 0
73 -213 0
74 -213 0
75 -213 0
76 -213 0
77 -213 0
78 -213 0
79 -213 0
-92 -72 -73 -74 -75 -76 -77 -78 -79 213 0
93 -214 0
73 -214 0
74 -214 0
75 -214 0
76 -214 0
77 -214 0
78 -214 0
79 -214 0
-93 -73 -74 -75 -76 -77 -78 -79 214 0
94 -215 0
74 -215 0
75 -215 0
76 -215 0
77 -215 0
78 -215 0
79 -215 0
-94 -74 -75 -76 -77 -78 -79 215 0
95 -216 0
75 -216 0
76 -216 0
77 -216 0
78 -216 0
79 -216 0
-95 -75 -76 -77 -78 -79 216 0
96 -217 0
76 -217 0
77 -217 0
78 -217 0
79 -217 0
-96 -76 -77 -78 -79 217 0
97 -218 0
77 -218 0
78 -218 0
79 -218 0
-97 -77 -78 -79 218 0
98 -219 0
78 -219 0
79 -219 0
-98 -78 -79 219 0
99 -220 0
79 -220 0
-99 -79 220 0
65 -221 0
67 -221 0
68 -221 0
69 -221 0
70 -221 0
71 -221 0
72 -221 0
73 -221 0
74 -221 0
75 -221 0
76 -221 0
77 -221 0
78 -221 0
79 -221 0
80 -221 0
-65 -67 -68 -69 -70 -71 -72 -73 -74 -75 -76 -77 -78 -79 -80 221 0
88 -222 0
68 -222 0
69 -222 0
70 -222 0
71 -222 0
72 -222 0
73 -222 0
74 -222 0
75 -222 0
76 -222 0
77 -222 0
78 -222 0
79 -222 0
80 -222 0
-88 -68 -69 -70 -71 -72 -73 -74 -75 -76 -77 -78 -79 -80 222 0
89 -223 0
69 -223 0
70 -223 0
71 -223 0
72 -223 0
73 -223 0
74 -223 0
75 -223 0
76 -223 0
77 -223 0
78 -223 0
79 -223 0
80 -223 0
-89 -69 -70 -71 -72 -73 -74 -75 -76 -77 -78 -79 -80 223 0
90 -224 0
70 -224 0
71 -224 0
72 -224 0
73 -224 0
74 -224 0
75 -224 0
76 -224 0
77 -224 0
78 -224 0
79 -224 0
80 -224 0
-90 -70 -71 -72 -73 -74 -75 -76 -77 -78 -79 -80 224 0
91 -225 0
71 -225 0
72 -225 0
73 -225 0
74 -225 0
75 -225 0
76 -225 0
77 -225 0
78 -225 0
79 -225 0
80 -225 0
-91 -71 -72 -73 -74 -75 -76 -77 -78 -79 -80 225 0
92 -226 0
72 -226 0
73 -226 0
74 -226 0
75 -226 0
76 -226 0
77 -226 0
78 -226 0
79 -226 0
80 -226 0
-92 -72 -73 -74 -75 -76 -77 -78 -79 -80 226 0
93 -227 0
73 -227 0
74 -227 0
75 -227 0
76 -227 0
77 -227 0
78 -227 0
79 -227 0
80 -227 0
-93 -73 -74 -75 -76 -77 -78 -79 -80 227 0
94 -228 0
74 -228 0
75 -228 0
76 -228 0
77 -228 0
78 -228 0
79 -228 0
80 -228 0
-94 -74 -75 -76 -77 -78 -79 -80 228 0
95 -229 0
75 -229 0
76 -229 0
77 -229 0
78 -229 0
79 -229 0
80 -229 0
-95 -75 -76 -77 -78 -79 -80 229 0
96 -230 0
76 -230 0
77 -230 0
78 -230 0
79 -230 0
80 -230 0
-96 -76 -77 -78 -79 -80 230 0
97 -231 0
77 -231 0
78 -231 0
79 -231 0
80 -231 0
-97 -77 -78 -79 -80 231 0
98 -232 0
78 -232 0
79 -232 0
80 -232 0
-98 -78 -79 -80 232 0
99 -233 0
79 -233 0
80 -233 0
-99 -79 -80 233 0
100 -234 0
80 -234 0
-100 -80 234 0
65 -235 0
67 -235 0
68 -235 0
69 -235 0
70 -235 0
71 -235 0
72 -235 0
73 -235 0
74 -235 0
75 -235 0
76 -235 0
77 -235 0
78 -235 0
79 -235 0
80 -235 0
81 -235 0
-65 -67 -68 -69 -70 -71 -72 -73 -74 -75 -76 -77 -78 -79 -80 -81 235 0
88 -236 0
68 -236 0
69 -236 0
70 -236 0
71 -236 0
72 -236 0
73 -236 0
74 -236 0
75 -236 0
76 -236 0
77 -236 0
78 -236 0
79 -236 0
80 -236 0
81 -236 0
-88 -68 -69 -70 -71 -72 -73 -74 -75 -76 -77 -78 -79 -80 -81 236 0
89 -237 0
69 -237 0
70 -237 0
71 -237 0
72 -237 0
73 -237 0
74 -237 0
75 -237 0
76 -237 0
77 -237 0
78 -237 0
79 -237 0
80 -237 0
81 -237 0
-89 -69 -70 -71 -72 -73 -74 -75 -76 -77 -78 -79 -80 -81 237 0
90 -238 0
70 -238 0
71 -238 0
72 -238 0
73 -238 0
74 -238 0
75 -238 0
76 -238 0
77 -238 0
78 -238 0
79 -238 0
80 -238 0
81 -238 0
-90 -70 -71 -72 -73 -74 -75 -76 -77 -78 -79 -80 -81 238 0
91 -239 0
71 -239 0
72 -239 0
73 -239 0
74 -239 0
75 -239 0
76 -239 0
77 -239 0
78 -239 0
79 -239 0
80 -239 0
81 -239 0
-91 -71 -72 -73 -74 -75 -76 -77 -78 -79 -80 -81 239 0
92 -240 0
72 -240 0
73 -240 0
74 -240 0
75 -240 0
76 -240 0
77 -240 0
78 -240 0
79 -240 0
80 -240 0
81 -240 0
-92 -72 -73 -74 -75 -76 -77 -78 -79 -80 -81 240 0
93 -241 0
73 -241 0
74 -241 0
75 -241 0
76 -241 0
77 -241 0
78 -241 0
79 -241 0
80 -241 0
81 -241 0
-93 -73 -74 -75 -76 -77 -78 -79 -80 -81 241 0
94 -242 0
74 -242 0
75 -242 0
76 -242 0
77 -242 0
78 -242 0
79 -242 0
80 -242 0
81 -242 0
-94 -74 -75 -76 -77 -78 -79 -80 -81 242 0
95 -243 0
75 -243 0
76 -243 0
77 -243 0
78 -243 0
79 -243 0
80 -243 0
81 -243 0
-95 -75 -76 -77 -78 -79 -80 -81 243 0
96 -244 0
76 -244 0
77 -244 0
78 -244 0
79 -244 0
80 -244 0
81 -244 0
-96 -76 -77 -78 -79 -80 -81 244 0
97 -245 0
77 -245 0
78 -245 0
79 -245 0
80 -245 0
81 -245 0
-97 -77 -78 -79 -80 -81 245 0
98 -246 0
78 -246 0
79 -246 0
80 -246 0
81 -246 0
-98 -78 -79 -80 -81 246 0
99 -247 0
79 -247 0
80 -247 0
81 -247 0
-99 -79 -80 -81 247 0
100 -248 0
80 -248 0
81 -248 0
-100 -80 -81 248 0
101 -249 0
81 -249 0
-101 -81 249 0
65 -250 0
67 -250 0
68 -250 0
69 -250 0
70 -250 0
71 -250 0
72 -250 0
73 -250 0
74 -250 0
75 -250 0
76 -250 0
77 -250 0
78 -250 0
79 -250 0
80 -250 0
81 -250 0
82 -250 0
-65 -67 -68 -69 -70 -71 -72 -73 -74 -75 -76 -77 -78 -79 -80 -81 -82 250 0
88 -251 0
68 -251 0
69 -251 0
70 -251 0
71 -251 0
72 -251 0
73 -251 0
74 -251 0
75 -251 0
76 -251 0
77 -251 0
78 -251 0
79 -251 0
80 -251 0
81 -251 0
82 -251 0
-88 -68 -69 -70 -71 -72 -73 -74 -75 -76 -77 -78 -79 -80 -81 -82 251 0
89 -252 0
69 -252 0
70 -252 0
71 -252 0
72 -252 0
73 -252 0
74 -252 0
75 -252 0
76 -252 0
77 -252 0
78 -252 0
79 -252 0
80 -252 0
81 -252 0
82 -252 0
-89 -69 -70 -71 -72 -73 -74 -75 -76 -77 -78 -79 -80 -81 -82 252 0
90 -253 0
70 -253 0
71 -253 0
72 -253 0
73 -253 0
74 -253 0
75 -253 0
76 -253 0
77 -253 0
78 -253 0
79 -253 0
80 -253 0
81 -253 0
82 -253 0
-90 -70 -71 -72 -73 -74 -75 -76 -77 -78 -79 -80 -81 -82 253 0
91 -254 0
71 -254 0
72 -254 0
73 -254 0
74 -254 0
75 -254 0
76 -254 0
77 -254 0
78 -254 0
79 -254 0
80 -254 0
81 -254 0
82 -254 0
-91 -71 -72 -73 -74 -75 -76 -77 -78 -79 -80 -81 -82 254 0
92 -255 0
72 -255 0
73 -255 0
74 -255 0
75 -255 0
76 -255 0
77 -255 0
78 -255 0
79 -255 0
80 -255 0
81 -255 0
82 -255 0
-92 -72 -73 -74 -75 -76 -77 -78 -79 -80 -81 -82 255 0
93 -256 0
73 -256 0
74 -256 0
75 -256 0
76 -256 0
77 -256 0
78 -256 0
79 -256 0
80 -256 0
81 -256 0
82 -256 0
-93 -73 -74 -75 -76 -77 -78 -79 -80 -81 -82 256 0
94 -257 0
74 -257 0
75 -257 0
76 -257 0
77 -257 0
78 -257 0
79 -257 0
80 -257 0
81 -257 0
82 -257 0
-94 -74 -75 -76 -77 -78 -79 -80 -81 -82 257 0
95 -258 0
75 -258 0
76 -258 0
77 -258 0
78 -258 0
79 -258 0
80 -258 0
81 -258 0
82 -258 0
-95 -75 -76 -77 -78 -79 -80 -81 -82 258 0
96 -259 0
76 -259 0
77 -259 0
78 -259 0
79 -259 0
80 -259 0
81 -259 0
82 -259 0
-96 -76 -77 -78 -79 -80 -81 -82 259 0
97 -260 0
77 -260 0
78 -260 0
79 -260 0
80 -260 0
81 -260 0
82 -260 0
-97 -77 -78 -79 -80 -81 -82 260 0
98 -261 0
78 -261 0
79 -261 0
80 -261 0
81 -261 0
82 -261 0
-98 -78 -79 -80 -81 -82 261 0
99 -262 0
79 -262 0
80 -262 0
81 -262 0
82 -262 0
-99 -79 -80 -81 -82 262 0
100 -263 0
80 -263 0
81 -263 0
82 -263 0
-100 -80 -81 -82 263 0
101 -264 0
81 -264 0
82 -264 0
-101 -81 -82 264 0
102 -265 0
82 -265 0
-102 -82 265 0
65 -266 0
67 -266 0
68 -266 0
69 -266 0
70 -266 0
71 -266 0
72 -266 0
73 -266 0
74 -266 0
75 -266 0
76 -266 0
77 -266 0
78 -266 0
79 -266 0
80 -266 0
81 -266 0
82 -266 0
83 -266 0
-65 -67 -68 -69 -70 -71 -72 -73 -74 -75 -76 -77 -78 -79 -80 -81 -82 -83 266 0
88 -267 0
68 -267 0
69 -267 0
70 -267 0
71 -267 0
72 -267 0
73 -267 0
74 -267 0
75 -267 0
76 -267 0
77 -267 0
78 -267 0
79 -267 0
80 -267 0
81 -267 0
82 -267 0
83 -267 0
-88 -68 -69 -70 -71 -72 -73 -74 -75 -76 -77 -78 -79 -80 -81 -82 -83 267 0
89 -268 0
69 -268 0
70 -268 0
71 -268 0
72 -268 0
73 -268 0
74 -268 0
75 -268 0
76 -268 0
77 -268 0
78 -268 0
79 -268 0
80 -268 0
81 -268 0
82 -268 0
83 -268 0
-89 -69 -70 -71 -72 -73 -74 -75 -76 -77 -78 -79 -80 -81 -82 -83 268 0
90 -269 0
70 -269 0
71 -269 0
72 -269 0
73 -269 0
74 -269 0
75 -269 0
76 -269 0
77 -269 0
78 -269 0
79 -269 0
80 -269 0
81 -269 0
82 -269 0
83 -269 0
-90 -70 -71 -72 -73 -74 -75 -76 -77 -78 -79 -80 -81 -82 -83 269 0
91 -270 0
71 -270 0
72 -270 0
73 -270 0
74 -270 0
75 -270 0
76 -270 0
77 -270 0
78 -270 0
79 -270 0
80 -270 0
81 -270 0
82 -270 0
83 -270 0
-91 -71 -72 -73 -74 -75 -76 -77 -78 -79 -80 -81 -82 -83 270 0
92 -271 0
72 -271 0
73 -271 0
74 -271 0
75 -271 0
76 -271 0
77 -271 0
78 -271 0
79 -271 0
80 -271 0
81 -271 0
82 -271 0
83 -271 0
-92 -72 -73 -74 -75 -76 -77 -78 -79 -80 -81 -82 -83 271 0
93 -272 0
73 -272 0
74 -272 0
75 -272 0
76 -272 0
77 -272 0
78 -272 0
79 -272 0
80 -272 0
81 -272 0
82 -272 0
83 -272 0
-93 -73 -74 -75 -76 -77 -78 -79 -80 -81 -82 -83 272 0
94 -273 0
74 -273 0
75 -273 0
76 -273 0
77 -273 0
78 -273 0
79 -273 0
80 -273 0
81 -273 0
82 -273 0
83 -273 0
-94 -74 -75 -76 -77 -78 -79 -80 -81 -82 -83 273 0
95 -274 0
75 -274 0
76 -274 0
77 -274 0
78 -274 0
79 -274 0
80 -274 0
81 -274 0
82 -274 0
83 -274 0
-95 -75 -76 -77 -78 -79 -80 -81 -82 -83 274 0
96 -275 0
76 -275 0
77 -275 0
78 -275 0
79 -275 0
80 -275 0
81 -275 0
82 -275 0
83 -275 0
-96 -76 -77 -78 -79 -80 -81 -82 -83 275 0
97 -276 0
77 -276 0
78 -276 0
79 -276 0
80 -276 0
81 -276 0
82 -276 0
83 -276 0
-97 -77 -78 -79 -80 -81 -82 -83 276 0
98 -277 0
78 -277 0
79 -277 0
80 -277 0
81 -277 0
82 -277 0
83 -277 0
-98 -78 -79 -80 -81 -82 -83 277 0
99 -278 0
79 -278 0
80 -278 0
81 -278 0
82 -278 0
83 -278 0
-99 -79 -80 -81 -82 -83 278 0
100 -279 0
80 -279 0
81 -279 0
82 -279 0
83 -279 0
-100 -80 -81 -82 -83 279 0
101 -280 0
81 -280 0
82 -280 0
83 -280 0
-101 -81 -82 -83 280 0
102 -281 0
82 -281 0
83 -281 0
-102 -82 -83 281 0
103 -282 0
83 -282 0
-103 -83 282 0
65 -283 0
67 -283 0
68 -283 0
69 -283 0
70 -283 0
71 -283 0
72 -283 0
73 -283 0
74 -283 0
75 -283 0
76 -283 0
77 -283 0
78 -283 0
79 -283 0
80 -283 0
81 -283 0
82 -283 0
83 -283 0
84 -283 0
-65 -67 -68 -69 -70 -71 -72 -73 -74 -75 -76 -77 -78 -79 -80 -81 -82 -83 -84 283 0
88 -284 0
68 -284 0
69 -284 0
70 -284 0
71 -284 0
72 -284 0
73 -284 0
74 -284 0
75 -284 0
76 -284 0
77 -284 0
78 -284 0
79 -284 0
80 -284 0
81 -284 0
82 -284 0
83 -284 0
84 -284 0
-88 -68 -69 -70 -71 -72 -73 -74 -75 -76 -77 -78 -79 -80 -81 -82 -83 -84 284 0
89 -285 0
69 -285 0
70 -285 0
71 -285 0
72 -285 0
73 -285 0
74 -285 0
75 -285 0
76 -285 0
77 -285 0
78 -285 0
79 -285 0
80 -285 0
81 -285 0
82 -285 0
83 -285 0
84 -285 0
-89 -69 -70 -71 -72 -73 -74 -75 -76 -77 -78 -79 -80 -81 -82 -83 -84 285 0
90 -286 0
70 -286 0
71 -286 0
72 -286 0
73 -286 0
74 -286 0
75 -286 0
76 -286 0
77 -286 0
78 -286 0
79 -286 0
80 -286 0
81 -286 0
82 -286 0
83 -286 0
84 -286 0
-90 -70 -71 -72 -73 -74 -75 -76 -77 -78 -79 -80 -81 -82 -83 -84 286 0
91 -287 0
71 -287 0
72 -287 0
73 -287 0
74 -287 0
75 -287 0
76 -287 0
77 -287 0
78 -287 0
79 -287 0
80 -287 0
81 -287 0
82 -287 0
83 -287 0
84 -287 0
-91 -71 -72 -73 -74 -75 -76 -77 -78 -79 -80 -81 -82 -83 -84 287 0
92 -288 0
72 -288 0
73 -288 0
74 -288 0
75 -288 0
76 -288 0
77 -288 0
78 -288 0
79 -288 0
80 -288 0
81 -288 0
82 -288 0
83 -288 0
84 -288 0
-92 -72 -73 -74 -75 -76 -77 -78 -79 -80 -81 -82 -83 -84 288 0
93 -289 0
73 -289 0
74 -289 0
75 -289 0
76 -289 0
77 -289 0
78 -289 0
79 -289 0
80 -289 0
81 -289 0
82 -289 0
83 -289 0
84 -289 0
-93 -73 -74 -75 -76 -77 -78 -79 -80 -81 -82 -83 -84 289 0
94 -290 0
74 -290 0
75 -290 0
76 -290 0
77 -290 0
78 -290 0
79 -290 0
80 -290 0
81 -290 0
82 -290 0
83 -290 0
84 -290 0
-94 -74 -75 -76 -77 -78 -79 -80 -81 -82 -83 -84 290 0
95 -291 0
75 -291 0
76 -291 0
77 -291 0
78 -291 0
79 -291 0
80 -291 0
81 -291 0
82 -291 0
83 -291 0
84 -291 0
-95 -75 -76 -77 -78 -79 -80 -81 -82 -83 -84 291 0
96 -292 0
76 -292 0
77 -292 0
78 -292 0
79 -292 0
80 -292 0
81 -292 0
82 -292 0
83 -292 0
84 -292 0
-96 -76 -77 -78 -79 -80 -81 -82 -83 -84 292 0
97 -293 0
77 -293 0
78 -293 0
79 -293 0
80 -293 0
81 -293 0
82 -293 0
83 -293 0
84 -293 0
-97 -77 -78 -79 -80 -81 -82 -83 -84 293 0
98 -294 0
78 -294 0
79 -294 0
80 -294 0
81 -294 0
82 -294 0
83 -294 0
84 -294 0
-98 -78 -79 -80 -81 -82 -83 -84 294 0
99 -295 0
79 -295 0
80 -295 0
81 -295 0
82 -295 0
83 -295 0
84 -295 0
-99 -79 -80 -81 -82 -83 -84 295 0
100 -296 0
80 -296 0
81 -296 0
82 -296 0
83 -296 0
84 -296 0
-100 -80 -81 -82 -83 -84 296 0
101 -297 0
81 -297 0
82 -297 0
83 -297 0
84 -297 0
-101 -81 -82 -83 -84 297 0
102 -298 0
82 -298 0
83 -298 0
84 -298 0
-102 -82 -83 -84 298 0
103 -299 0
83 -299 0
84 -299 0
-103 -83 -84 299 0
104 -300 0
84 -300 0
-104 -84 300 0
65 -301 0
67 -301 0
68 -301 0
69 -301 0
70 -301 0
71 -301 0
72 -301 0
73 -301 0
74 -301 0
75 -301 0
76 -301 0
77 -301 0
78 -301 0
79 -301 0
80 -301 0
81 -301 0
82 -301 0
83 -301 0
84 -301 0
85 -301 0
-65 -67 -68 -69 -70 -71 -72 -73 -74 -75 -76 -77 -78 -79 -80 -81 -82 -83 -84 -85 301 0
88 -302 0
68 -302 0
69 -302 0
70 -302 0
71 -302 0
72 -302 0
73 -302 0
74 -302 0
75 -302 0
76 -302 0
77 -302 0
78 -302 0
79 -302 0
80 -302 0
81 -302 0
82 -302 0
83 -302 0
84 -302 0
85 -302 0
-88 -68 -69 -70 -71 -72 -73 -74 -75 -76 -77 -78 -79 -80 -81 -82 -83 -84 -85 302 0
89 -303 0
69 -303 0
70 -303 0
71 -303 0
72 -303 0
73 -303 0
74 -303 0
75 -303 0
76 -303 0
77 -303 0
78 -303 0
79 -303 0
80 -303 0
81 -303 0
82 -303 0
83 -303 0
84 -303 0
85 -303 0
-89 -69 -70 -71 -72 -73 -74 -75 -76 -77 -78 -79 -80 -81 -82 -83 -84 -85 303 0
90 -304 0
70 -304 0
71 -304 0
72 -304 0
73 -304 0
74 -304 0
75 -304 0
76 -304 0
77 -304 0
78 -304 0
79 -304 0
80 -304 0
81 -304 0
82 -304 0
83 -304 0
84 -304 0
85 -304 0
-90 -70 -71 -72 -73 -74 -75 -76 -77 -78 -79 -80 -81 -82 -83 -84 -85 304 0
91 -305 0
71 -305 0
72 -305 0
73 -305 0
74 -305 0
75 -305 0
76 -305 0
77 -305 0
78 -305 0
79 -305 0
80 -305 0
81 -305 0
82 -305 0
83 -305 0
84 -305 0
85 -305 0
-91 -71 -72 -73 -74 -75 -76 -77 -78 -79 -80 -81 -82 -83 -84 -85 305 0
92 -306 0
72 -306 0
73 -306 0
74 -306 0
75 -306 0
76 -306 0
77 -306 0
78 -306 0
79 -306 0
80 -306 0
81 -306 0
82 -306 0
83 -306 0
84 -306 0
85 -306 0
-92 -72 -73 -74 -75 -76 -77 -78 -79 -80 -81 -82 -83 -84 -85 306 0
93 -307 0
73 -307 0
74 -307 0
75 -307 0
76 -307 0
77 -307 0
78 -307 0
79 -307 0
80 -307 0
81 -307 0
82 -307 0
83 -307 0
84 -307 0
85 -307 0
-93 -73 -74 -75 -76 -77 -78 -79 -80 -81 -82 -83 -84 -85 307 0
94 -308 0
74 -308 0
75 -308 0
76 -308 0
77 -308 0
78 -308 0
79 -308 0
80 -308 0
81 -308 0
82 -308 0
83 -308 0
84 -308 0
85 -308 0
-94 -74 -75 -76 -77 -78 -79 -80 -81 -82 -83 -84 -85 308 0
95 -309 0
75 -309 0
76 -309 0
77 -309 0
78 -309 0
79 -309 0
80 -309 0
81 -309 0
82 -309 0
83 -309 0
84 -309 0
85 -309 0
-95 -75 -76 -77 -78 -79 -80 -81 -82 -83 -84 -85 309 0
96 -310 0
76 -310 0
77 -310 0
78 -310 0
79 -310 0
80 -310 0
81 -310 0
82 -310 0
83 -310 0
84 -310 0
85 -310 0
-96 -76 -77 -78 -79 -80 -81 -82 -83 -84 -85 310 0
97 -311 0
77 -311 0
78 -311 0
79 -311 0
80 -311 0
81 -311 0
82 -311 0
83 -311 0
84 -311 0
85 -311 0
-97 -77 -78 -79 -80 -81 -82 -83 -84 -85 311 0
98 -312 0
78 -312 0
79 -312 0
80 -312 0
81 -312 0
82 -312 0
83 -312 0
84 -312 0
85 -312 0
-98 -78 -79 -80 -81 -82 -83 -84 -85 312 0
99 -313 0
79 -313 0
80 -313 0
81 -313 0
82 -313 0
83 -313 0
84 -313 0
85 -313 0
-99 -79 -80 -81 -82 -83 -84 -85 313 0
100 -314 0
80 -314 0
81 -314 0
82 -314 0
83 -314 0
84 -314 0
85 -314 0
-100 -80 -81 -82 -83 -84 -85 314 0
101 -315 0
81 -315 0
82 -315 0
83 -315 0
84 -315 0
85 -315 0
-101 -81 -82 -83 -84 -85 315 0
102 -316 0
82 -316 0
83 -316 0
84 -316 0
85 -316 0
-102 -82 -83 -84 -85 316 0
103 -317 0
83 -317 0
84 -317 0
85 -317 0
-103 -83 -84 -85 317 0
104 -318 0
84 -318 0
85 -318 0
-104 -84 -85 318 0
105 -319 0
85 -319 0
-105 -85 319 0
65 -320 0
67 -320 0
68 -320 0
69 -320 0
70 -320 0
71 -320 0
72 -320 0
73 -320 0
74 -320 0
75 -320 0
76 -320 0
77 -320 0
78 -320 0
79 -320 0
80 -320 0
81 -320 0
82 -320 0
83 -320 0
84 -320 0
85 -320 0
86 -320 0
-65 -67 -68 -69 -70 -71 -72 -73 -74 -75 -76 -77 -78 -79 -80 -81 -82 -83 -84 -85 -86 320 0
88 -321 0
68 -321 0
69 -321 0
70 -321 0
71 -321 0
72 -321 0
73 -321 0
74 -321 0
75 -321 0
76 -321 0
77 -321 0
78 -321 0
79 -321 0
80 -321 0
81 -321 0
82 -321 0
83 -321 0
84 -321 0
85 -321 0
86 -321 0
-88 -68 -69 -70 -71 -72 -73 -74 -75 -76 -77 -78 -79 -80 -81 -82 -83 -84 -85 -86 321 0
89 -322 0
69 -322 0
70 -322 0
71 -322 0
72 -322 0
73 -322 0
74 -322 0
75 -322 0
76 -322 0
77 -322 0
78 -322 0
79 -322 0
80 -322 0
81 -322 0
82 -322 0
83 -322 0
84 -322 0
85 -322 0
86 -322 0
-89 -69 -70 -71 -72 -73 -74 -75 -76 -77 -78 -79 -80 -81 -82 -83 -84 -85 -86 322 0
90 -323 0
70 -323 0
71 -323 0
72 -323 0
73 -323 0
74 -323 0
75 -323 0
76 -323 0
77 -323 0
78 -323 0
79 -323 0
80 -323 0
81 -323 0
82 -323 0
83 -323 0
84 -323 0
85 -323 0
86 -323 0
-90 -70 -71 -72 -73 -74 -75 -76 -77 -78 -79 -80 -81 -82 -83 -84 -85 -86 323 0
91 -324 0
71 -324 0
72 -324 0
73 -324 0
74 -324 0
75 -324 0
76 -324 0
77 -324 0
78 -324 0
79 -324 0
80 -324 0
81 -324 0
82 -324 0
83 -324 0
84 -324 0
85 -324 0
86 -324 0
-91 -71 -72 -73 -74 -75 -76 -77 -78 -79 -80 -81 -82 -83 -84 -85 -86 324 0
92 -325 0
72 -325 0
73 -325 0
74 -325 0
75 -325 0
76 -325 0
77 -325 0
78 -325 0
79 -325 0
80 -325 0
81 -325 0
82 -325 0
83 -325 0
84 -325 0
85 -325 0
86 -325 0
-92 -72 -73 -74 -75 -76 -77 -78 -79 -80 -81 -82 -83 -84 -85 -86 325 0
93 -326 0
73 -326 0
74 -326 0
75 -326 0
76 -326 0
77 -326 0
78 -326 0
79 -326 0
80 -326 0
81 -326 0
82 -326 0
83 -326 0
84 -326 0
85 -326 0
86 -326 0
-93 -73 -74 -75 -76 -77 -78 -79 -80 -81 -82 -83 -84 -85 -86 326 0
94 -327 0
74 -327 0
75 -327 0
76 -327 0
77 -327 0
78 -327 0
79 -327 0
80 -327 0
81 -327 0
82 -327 0
83 -327 0
84 -327 0
85 -327 0
86 -327 0
-94 -74 -75 -76 -77 -78 -79 -80 -81 -82 -83 -84 -85 -86 327 0
95 -328 0
75 -328 0
76 -328 0
77 -328 0
78 -328 0
79 -328 0
80 -328 0
81 -328 0
82 -328 0
83 -328 0
84 -328 0
85 -328 0
86 -328 0
-95 -75 -76 -77 -78 -79 -80 -81 -82 -83 -84 -85 -86 328 0
96 -329 0
76 -329 0
77 -329 0
78 -329 0
79 -329 0
80 -329 0
81 -329 0
82 -329 0
83 -329 0
84 -329 0
85 -329 0
86 -329 0
-96 -76 -77 -78 -79 -80 -81 -82 -83 -84 -85 -86 329 0
97 -330 0
77 -330 0
78 -330 0
79 -330 0
80 -330 0
81 -330 0
82 -330 0
83 -330 0
84 -330 0
85 -330 0
86 -330 0
-97 -77 -78 -79 -80 -81 -82 -83 -84 -85 -86 330 0
98 -331 0
78 -331 0
79 -331 0
80 -331 0
81 -331 0
82 -331 0
83 -331 0
84 -331 0
85 -331 0
86 -331 0
-98 -78 -79 -80 -81 -82 -83 -84 -85 -86 331 0
99 -332 0
79 -332 0
80 -332 0
81 -332 0
82 -332 0
83 -332 0
84 -332 0
85 -332 0
86 -332 0
-99 -79 -80 -81 -82 -83 -84 -85 -86 332 0
100 -333 0
80 -333 0
81 -333 0
82 -333 0
83 -333 0
84 -333 0
85 -333 0
86 -333 0
-100 -80 -81 -82 -83 -84 -85 -86 333 0
101 -334 0
81 -334 0
82 -334 0
83 -334 0
84 -334 0
85 -334 0
86 -334 0
-101 -81 -82 -83 -84 -85 -86 334 0
102 -335 0
82 -335 0
83 -335 0
84 -335 0
85 -335 0
86 -335 0
-102 -82 -83 -84 -85 -86 335 0
103 -336 0
83 -336 0
84 -336 0
85 -336 0
86 -336 0
-103 -83 -84 -85 -86 336 0
104 -337 0
84 -337 0
85 -337 0
86 -337 0
-104 -84 -85 -86 337 0
105 -338 0
85 -338 0
86 -338 0
-105 -85 -86 338 0
106 -339 0
86 -339 0
-106 -86 339 0
65 -340 0
67 -340 0
68 -340 0
69 -340 0
70 -340 0
71 -340 0
72 -340 0
73 -340 0
74 -340 0
75 -340 0
76 -340 0
77 -340 0
78 -340 0
79 -340 0
80 -340 0
81 -340 0
82 -340 0
83 -340 0
84 -340 0
85 -340 0
86 -340 0
87 -340 0
-65 -67 -68 -69 -70 -71 -72 -73 -74 -75 -76 -77 -78 -79 -80 -81 -82 -83 -84 -85 -86 -87 340 0
88 -341 0
68 -341 0
69 -341 0
70 -341 0
71 -341 0
72 -341 0
73 -341 0
74 -341 0
75 -341 0
76 -341 0
77 -341 0
78 -341 0
79 -341 0
80 -341 0
81 -341 0
82 -341 0
83 -341 0
84 -341 0
85 -341 0
86 -341 0
87 -341 0
-88 -68 -69 -70 -71 -72 -73 -74 -75 -76 -77 -78 -79 -80 -81 -82 -83 -84 -85 -86 -87 341 0
89 -342 0
69 -342 0
70 -342 0
71 -342 0
72 -342 0
73 -342 0
74 -342 0
75 -342 0
76 -342 0
77 -342 0
78 -342 0
79 -342 0
80 -342 0
81 -342 0
82 -342 0
83 -342 0
84 -342 0
85 -342 0
86 -342 0
87 -342 0
-89 -69 -70 -71 -72 -73 -74 -75 -76 -77 -78 -79 -80 -81 -82 -83 -84 -85 -86 -87 342 0
90 -343 0
70 -343 0
71 -343 0
72 -343 0
73 -343 0
74 -343 0
75 -343 0
76 -343 0
77 -343 0
78 -343 0
79 -343 0
80 -343 0
81 -343 0
82 -343 0
83 -343 0
84 -343 0
85 -343 0
86 -343 0
87 -343 0
-90 -70 -71 -72 -73 -74 -75 -76 -77 -78 -79 -80 -81 -82 -83 -84 -85 -86 -87 343 0
91 -344 0
71 -344 0
72 -344 0
73 -344 0
74 -344 0
75 -344 0
76 -344 0
77 -344 0
78 -344 0
79 -344 0
80 -344 0
81 -344 0
82 -344 0
83 -344 0
84 -344 0
85 -344 0
86 -344 0
87 -344 0
-91 -71 -72 -73 -74 -75 -76 -77 -78 -79 -80 -81 -82 -83 -84 -85 -86 -87 344 0
92 -345 0
72 -345 0
73 -345 0
74 -345 0
75 -345 0
76 -345 0
77 -345 0
78 -345 0
79 -345 0
80 -345 0
81 -345 0
82 -345 0
83 -345 0
84 -345 0
85 -345 0
86 -345 0
87 -345 0
-92 -72 -73 -74 -75 -76 -77 -78 -79 -80 -81 -82 -83 -84 -85 -86 -87 345 0
93 -346 0
73 -346 0
74 -346 0
75 -346 0
76 -346 0
77 -346 0
78 -346 0
79 -346 0
80 -346 0
81 -346 0
82 -346 0
83 -346 0
84 -346 0
85 -346 0
86 -346 0
87 -346 0
-93 -73 -74 -75 -76 -77 -78 -79 -80 -81 -82 -83 -84 -85 -86 -87 346 0
94 -347 0
74 -347 0
75 -347 0
76 -347 0
77 -347 0
78 -347 0
79 -347 0
80 -347 0
81 -347 0
82 -347 0
83 -347 0
84 -347 0
85 -347 0
86 -347 0
87 -347 0
-94 -74 -75 -76 -77 -78 -79 -80 -81 -82 -83 -84 -85 -86 -87 347 0
95 -348 0
75 -348 0
76 -348 0
77 -348 0
78 -348 0
79 -348 0
80 -348 0
81 -348 0
82 -348 0
83 -348 0
84 -348 0
85 -348 0
86 -348 0
87 -348 0
-95 -75 -76 -77 -78 -79 -80 -81 -82 -83 -84 -85 -86 -87 348 0
96 -349 0
76 -349 0
77 -349 0
78 -349 0
79 -349 0
80 -349 0
81 -349 0
82 -349 0
83 -349 0
84 -349 0
85 -349 0
86 -349 0
87 -349 0
-96 -76 -77 -78 -79 -80 -81 -82 -83 -84 -85 -86 -87 349 0
97 -350 0
77 -350 0
78 -350 0
79 -350 0
80 -350 0
81 -350 0
82 -350 0
83 -350 0
84 -350 0
85 -350 0
86 -350 0
87 -350 0
-97 -77 -78 -79 -80 -81 -82 -83 -84 -85 -86 -87 350 0
98 -351 0
78 -351 0
79 -351 0
80 -351 0
81 -351 0
82 -351 0
83 -351 0
84 -351 0
85 -351 0
86 -351 0
87 -351 0
-98 -78 -79 -80 -81 -82 -83 -84 -85 -86 -87 351 0
99 -352 0
79 -352 0
80 -352 0
81 -352 0
82 -352 0
83 -352 0
84 -352 0
85 -352 0
86 -352 0
87 -352 0
-99 -79 -80 -81 -82 -83 -84 -85 -86 -87 352 0
100 -353 0
80 -353 0
81 -353 0
82 -353 0
83 -353 0
84 -353 0
85 -353 0
86 -353 0
87 -353 0
-100 -80 -81 -82 -83 -84 -85 -86 -87 353 0
101 -354 0
81 -354 0
82 -354 0
83 -354 0
84 -354 0
85 -354 0
86 -354 0
87 -354 0
-101 -81 -82 -83 -84 -85 -86 -87 354 0
102 -355 0
82 -355 0
83 -355 0
84 -355 0
85 -355 0
86 -355 0
87 -355 0
-102 -82 -83 -84 -85 -86 -87 355 0
103 -356 0
83 -356 0
84 -356 0
85 -356 0
86 -356 0
87 -356 0
-103 -83 -84 -85 -86 -87 356 0
104 -357 0
84 -357 0
85 -357 0
86 -357 0
87 -357 0
-104 -84 -85 -86 -87 357 0
105 -358 0
85 -358 0
86 -358 0
87 -358 0
-105 -85 -86 -87 358 0
106 -359 0
86 -359 0
87 -359 0
-106 -86 -87 359 0
107 -360 0
87 -360 0
-107 -87 360 0
-88 109 0
-130 109 0
88 130 -109 0
-89 110 0
-131 110 0
-132 110 0
89 131 132 -110 0
-90 111 0
-133 111 0
-134 111 0
-135 111 0
90 133 134 135 -111 0
-91 112 0
-136 112 0
-137 112 0
-138 112 0
-139 112 0
91 136 137 138 139 -112 0
-92 113 0
-140 113 0
-141 113 0
-142 113 0
-143 113 0
-144 113 0
92 140 141 142 143 144 -113 0
-93 114 0
-145 114 0
-146 114 0
-147 114 0
-148 114 0
-149 114 0
-150 114 0
93 145 146 147 148 149 150 -114 0
-94 115 0
-151 115 0
-152 115 0
-153 115 0
-154 115 0
-155 115 0
-156 115 0
-157 115 0
94 151 152 153 154 155 156 157 -115 0
-95 116 0
-158 116 0
-159 116 0
-160 116 0
-161 116 0
-162 116 0
-163 116 0
-164 116 0
-165 116 0
95 158 159 160 161 162 163 164 165 -116 0
-96 117 0
-166 117 0
-167 117 0
-168 117 0
-169 117 0
-170 117 0
-171 117 0
-172 117 0
-173 117 0
-174 117 0
96 166 167 168 169 170 171 172 173 174 -117 0
-97 118 0
-175 118 0
-176 118 0
-177 118 0
-178 118 0
-179 118 0
-180 118 0
-181 118 0
-182 118 0
-183 118 0
-184 118 0
97 175 176 177 178 179 180 181 182 183 184 -118 0
-98 119 0
-185 119 0
-186 119 0
-187 119 0
-188 119 0
-189 119 0
-190 119 0
-191 119 0
-192 119 0
-193 119 0
-194 119 0
-195 119 0
98 185 186 187 188 189 190 191 192 193 194 195 -119 0
-99 120 0
-196 120 0
-197 120 0
-198 120 0
-199 120 0
-200 120 0
-201 120 0
-202 120 0
-203 120 0
-204 120 0
-205 120 0
-206 120 0
-207 120 0
99 196 197 198 199 200 201 202 203 204 205 206 207 -120 0
-100 121 0
-208 121 0
-209 121 0
-210 121 0
-211 121 0
-212 121 0
-213 121 0
-214 121 0
-215 121 0
-216 121 0
-217 121 0
-218 121 0
-219 121 0
-220 121 0
100 208 209 210 211 212 213 214 215 216 217 218 219 220 -121 0
-101 122 0
-221 122 0
-222 122 0
-223 122 0
-224 122 0
-225 122 0
-226 122 0
-227 122 0
-228 122 0
-229 122 0
-230 122 0
-231 122 0
-232 122 0
-233 122 0
-234 122 0
101 221 222 223 224 225 226 227 228 229 230 231 232 233 234 -122 0
-102 123 0
-235 123 0
-236 123 0
-237 123 0
-238 123 0
-239 123 0
-240 123 0
-241 123 0
-242 123 0
-243 123 0
-244 123 0
-245 123 0
-246 123 0
-247 123 0
-248 123 0
-249 123 0
102 235 236 237 238 239 240 241 242 243 244 245 246 247 248 249 -123 0
-103 124 0
-250 124 0
-251 124 0
-252 124 0
-253 124 0
-254 124 0
-255 124 0
-256 124 0
-257 124 0
-258 124 0
-259 124 0
-260 124 0
-261 124 0
-262 124 0
-263 124 0
-264 124 0
-265 124 0
103 250 251 252 253 254 255 256 257 258 259 260 261 262 263 264 265 -124 0
-104 125 0
-266 125 0
-267 125 0
-268 125 0
-269 125 0
-270 125 0
-271 125 0
-272 125 0
-273 125 0
-274 125 0
-275 125 0
-276 125 0
-277 125 0
-278 125 0
-279 125 0
-280 125 0
-281 125 0
-282 125 0
104 266 267 268 269 270 271 272 273 274 275 276 277 278 279 280 281 282 -125 0
-105 126 0
-283 126 0
-284 126 0
-285 126 0
-286 126 0
-287 126 0
-288 126 0
-289 126 0
-290 126 0
-291 126 0
-292 126 0
-293 126 0
-294 126 0
-295 126 0
-296 126 0
-297 126 0
-298 126 0
-299 126 0
-300 126 0
105 283 284 285 286 287 288 289 290 291 292 293 294 295 296 297 298 299 300 -126 0
-106 127 0
-301 127 0
-302 127 0
-303 127 0
-304 127 0
-305 127 0
-306 127 0
-307 127 0
-308 127 0
-309 127 0
-310 127 0
-311 127 0
-312 127 0
-313 127 0
-314 127 0
-315 127 0
-316 127 0
-317 127 0
-318 127 0
-319 127 0
106 301 302 303 304 305 306 307 308 309 310 311 312 313 314 315 316 317 318 319 -127 0
-107 128 0
-320 128 0
-321 128 0
-322 128 0
-323 128 0
-324 128 0
-325 128 0
-326 128 0
-327 128 0
-328 128 0
-329 128 0
-330 128 0
-331 128 0
-332 128 0
-333 128 0
-334 128 0
-335 128 0
-336 128 0
-337 128 0
-338 128 0
-339 128 0
107 320 321 322 323 324 325 326 327 328 329 330 331 332 333 334 335 336 337 338 339 -128 0
-108 129 0
-340 129 0
-341 129 0
-342 129 0
-343 129 0
-344 129 0
-345 129 0
-346 129 0
-347 129 0
-348 129 0
-349 129 0
-350 129 0
-351 129 0
-352 129 0
-353 129 0
-354 129 0
-355 129 0
-356 129 0
-357 129 0
-358 129 0
-359 129 0
-360 129 0
108 340 341 342 343 344 345 346 347 348 349 350 351 352 353 354 355 356 357 358 359 360 -129 0
67 65 -43 0
-67 65 43 0
67 -65 43 0
-67 -65 -43 0
68 109 -44 0
-68 109 44 0
68 -109 44 0
-68 -109 -44 0
69 110 -45 0
-69 110 45 0
69 -110 45 0
-69 -110 -45 0
70 111 -46 0
-70 111 46 0
70 -111 46 0
-70 -111 -46 0
71 112 -47 0
-71 112 47 0
71 -112 47 0
-71 -112 -47 0
72 113 -48 0
-72 113 48 0
72 -113 48 0
-72 -113 -48 0
73 114 -49 0
-73 114 49 0
73 -114 49 0
-73 -114 -49 0
74 115 -50 0
-74 115 50 0
74 -115 50 0
-74 -115 -50 0
75 116 -51 0
-75 116 51 0
75 -116 51 0
-75 -116 -51 0
76 117 -52 0
-76 117 52 0
76 -117 52 0
-76 -117 -52 0
77 118 -53 0
-77 118 53 0
77 -118 53 0
-77 -118 -53 0
78 119 -54 0
-78 119 54 0
78 -119 54 0
-78 -119 -54 0
79 120 -55 0
-79 120 55 0
79 -120 55 0
-79 -120 -55 0
80 121 -56 0
-80 121 56 0
80 -121 56 0
-80 -121 -56 0
81 122 -57 0
-81 122 57 0
81 -122 57 0
-81 -122 -57 0
82 123 -58 0
-82 123 58 0
82 -123 58 0
-82 -123 -58 0
83 124 -59 0
-83 124 59 0
83 -124 59 0
-83 -124 -59 0
84 125 -60 0
-84 125 60 0
84 -125 60 0
-84 -125 -60 0
85 126 -61 0
-85 126 61 0
85 -126 61 0
-85 -126 -61 0
86 127 -62 0
-86 127 62 0
86 -127 62 0
-86 -127 -62 0
87 128 -63 0
-87 128 63 0
87 -128 63 0
-87 -128 -63 0
129 -64 0
-129 64 0
